; Options: -q --produce-models --incremental --print-success --lang smt2.6
(declare-fun start!44806 () Bool)

(assert start!44806)

(declare-fun b!214493 () Bool)

(declare-fun res!180347 () Bool)

(declare-fun e!146014 () Bool)

(assert (=> b!214493 (=> (not res!180347) (not e!146014))))

(declare-fun lt!339001 () (_ BitVec 64))

(declare-datatypes ((array!10569 0))(
  ( (array!10570 (arr!5571 (Array (_ BitVec 32) (_ BitVec 8))) (size!4641 (_ BitVec 32))) )
))
(declare-datatypes ((BitStream!8390 0))(
  ( (BitStream!8391 (buf!5176 array!10569) (currentByte!9754 (_ BitVec 32)) (currentBit!9749 (_ BitVec 32))) )
))
(declare-datatypes ((tuple2!18354 0))(
  ( (tuple2!18355 (_1!9832 BitStream!8390) (_2!9832 BitStream!8390)) )
))
(declare-fun lt!339002 () tuple2!18354)

(declare-fun lt!339010 () (_ BitVec 64))

(declare-fun withMovedBitIndex!0 (BitStream!8390 (_ BitVec 64)) BitStream!8390)

(assert (=> b!214493 (= res!180347 (= (_1!9832 lt!339002) (withMovedBitIndex!0 (_2!9832 lt!339002) (bvsub lt!339010 lt!339001))))))

(declare-fun b!214494 () Bool)

(declare-fun e!146018 () Bool)

(declare-fun thiss!1204 () BitStream!8390)

(declare-fun array_inv!4382 (array!10569) Bool)

(assert (=> b!214494 (= e!146018 (array_inv!4382 (buf!5176 thiss!1204)))))

(declare-fun b!214495 () Bool)

(declare-fun e!146015 () Bool)

(declare-datatypes ((Unit!15266 0))(
  ( (Unit!15267) )
))
(declare-datatypes ((tuple2!18356 0))(
  ( (tuple2!18357 (_1!9833 Unit!15266) (_2!9833 BitStream!8390)) )
))
(declare-fun lt!339012 () tuple2!18356)

(declare-fun invariant!0 ((_ BitVec 32) (_ BitVec 32) (_ BitVec 32)) Bool)

(assert (=> b!214495 (= e!146015 (invariant!0 (currentBit!9749 thiss!1204) (currentByte!9754 thiss!1204) (size!4641 (buf!5176 (_2!9833 lt!339012)))))))

(declare-fun b!214496 () Bool)

(declare-fun e!146010 () Bool)

(declare-fun e!146009 () Bool)

(assert (=> b!214496 (= e!146010 (not e!146009))))

(declare-fun res!180327 () Bool)

(assert (=> b!214496 (=> res!180327 e!146009)))

(declare-fun lt!339003 () (_ BitVec 64))

(assert (=> b!214496 (= res!180327 (not (= lt!339010 (bvadd #b0000000000000000000000000000000000000000000000000000000000000001 lt!339003))))))

(declare-fun lt!339006 () tuple2!18356)

(declare-fun bitIndex!0 ((_ BitVec 32) (_ BitVec 32) (_ BitVec 32)) (_ BitVec 64))

(assert (=> b!214496 (= lt!339010 (bitIndex!0 (size!4641 (buf!5176 (_2!9833 lt!339006))) (currentByte!9754 (_2!9833 lt!339006)) (currentBit!9749 (_2!9833 lt!339006))))))

(assert (=> b!214496 (= lt!339003 (bitIndex!0 (size!4641 (buf!5176 thiss!1204)) (currentByte!9754 thiss!1204) (currentBit!9749 thiss!1204)))))

(declare-fun e!146012 () Bool)

(assert (=> b!214496 e!146012))

(declare-fun res!180338 () Bool)

(assert (=> b!214496 (=> (not res!180338) (not e!146012))))

(assert (=> b!214496 (= res!180338 (= (size!4641 (buf!5176 thiss!1204)) (size!4641 (buf!5176 (_2!9833 lt!339006)))))))

(declare-fun lt!338995 () Bool)

(declare-fun appendBit!0 (BitStream!8390 Bool) tuple2!18356)

(assert (=> b!214496 (= lt!339006 (appendBit!0 thiss!1204 lt!338995))))

(declare-fun v!189 () (_ BitVec 64))

(declare-fun lt!339022 () (_ BitVec 64))

(assert (=> b!214496 (= lt!338995 (not (= (bvand v!189 lt!339022) #b0000000000000000000000000000000000000000000000000000000000000000)))))

(declare-fun i!590 () (_ BitVec 32))

(assert (=> b!214496 (= lt!339022 (bvshl #b0000000000000000000000000000000000000000000000000000000000000001 ((_ sign_extend 32) i!590)))))

(declare-fun b!214497 () Bool)

(declare-fun e!146006 () Bool)

(declare-datatypes ((tuple2!18358 0))(
  ( (tuple2!18359 (_1!9834 BitStream!8390) (_2!9834 Bool)) )
))
(declare-fun lt!339020 () tuple2!18358)

(declare-fun lt!339004 () tuple2!18358)

(assert (=> b!214497 (= e!146006 (= (_2!9834 lt!339020) (_2!9834 lt!339004)))))

(declare-fun b!214498 () Bool)

(declare-fun res!180330 () Bool)

(assert (=> b!214498 (=> (not res!180330) (not e!146010))))

(declare-fun nBits!348 () (_ BitVec 32))

(assert (=> b!214498 (= res!180330 (not (= i!590 nBits!348)))))

(declare-datatypes ((tuple2!18360 0))(
  ( (tuple2!18361 (_1!9835 BitStream!8390) (_2!9835 (_ BitVec 64))) )
))
(declare-fun lt!338997 () tuple2!18360)

(declare-fun b!214499 () Bool)

(declare-fun lt!339014 () BitStream!8390)

(declare-fun lt!339005 () tuple2!18360)

(assert (=> b!214499 (= e!146014 (and (= lt!339003 (bvsub lt!339010 #b0000000000000000000000000000000000000000000000000000000000000001)) (or (not (= (_1!9832 lt!339002) lt!339014)) (= (_2!9835 lt!338997) (_2!9835 lt!339005)))))))

(declare-fun b!214501 () Bool)

(declare-fun res!180334 () Bool)

(declare-fun e!146008 () Bool)

(assert (=> b!214501 (=> res!180334 e!146008)))

(declare-fun isPrefixOf!0 (BitStream!8390 BitStream!8390) Bool)

(assert (=> b!214501 (= res!180334 (not (isPrefixOf!0 (_2!9833 lt!339006) (_2!9833 lt!339012))))))

(declare-fun b!214502 () Bool)

(declare-fun res!180335 () Bool)

(assert (=> b!214502 (=> (not res!180335) (not e!146014))))

(declare-fun lt!338998 () tuple2!18354)

(assert (=> b!214502 (= res!180335 (= (_1!9832 lt!338998) (withMovedBitIndex!0 (_2!9832 lt!338998) (bvsub lt!339003 lt!339001))))))

(declare-fun b!214503 () Bool)

(assert (=> b!214503 (= e!146009 e!146008)))

(declare-fun res!180331 () Bool)

(assert (=> b!214503 (=> res!180331 e!146008)))

(assert (=> b!214503 (= res!180331 (not (= lt!339001 (bvsub (bvsub (bvadd lt!339010 ((_ sign_extend 32) nBits!348)) ((_ sign_extend 32) i!590)) #b0000000000000000000000000000000000000000000000000000000000000001))))))

(assert (=> b!214503 (= lt!339001 (bitIndex!0 (size!4641 (buf!5176 (_2!9833 lt!339012))) (currentByte!9754 (_2!9833 lt!339012)) (currentBit!9749 (_2!9833 lt!339012))))))

(assert (=> b!214503 (isPrefixOf!0 thiss!1204 (_2!9833 lt!339012))))

(declare-fun lt!339023 () Unit!15266)

(declare-fun lemmaIsPrefixTransitive!0 (BitStream!8390 BitStream!8390 BitStream!8390) Unit!15266)

(assert (=> b!214503 (= lt!339023 (lemmaIsPrefixTransitive!0 thiss!1204 (_2!9833 lt!339006) (_2!9833 lt!339012)))))

(declare-fun appendBitsLSBFirstLoopTR!0 (BitStream!8390 (_ BitVec 64) (_ BitVec 32) (_ BitVec 32)) tuple2!18356)

(assert (=> b!214503 (= lt!339012 (appendBitsLSBFirstLoopTR!0 (_2!9833 lt!339006) v!189 nBits!348 (bvadd #b00000000000000000000000000000001 i!590)))))

(declare-fun b!214504 () Bool)

(declare-fun e!146011 () Bool)

(assert (=> b!214504 (= e!146008 e!146011)))

(declare-fun res!180333 () Bool)

(assert (=> b!214504 (=> res!180333 e!146011)))

(assert (=> b!214504 (= res!180333 (not (= (_1!9835 lt!339005) (_2!9832 lt!339002))))))

(declare-fun lt!339007 () (_ BitVec 64))

(declare-fun readNBitsLSBFirstsLoopPure!0 (BitStream!8390 (_ BitVec 32) (_ BitVec 32) (_ BitVec 64)) tuple2!18360)

(assert (=> b!214504 (= lt!339005 (readNBitsLSBFirstsLoopPure!0 (_1!9832 lt!339002) nBits!348 (bvadd #b00000000000000000000000000000001 i!590) lt!339007))))

(declare-fun lt!339019 () (_ BitVec 64))

(declare-fun validate_offset_bits!1 ((_ BitVec 64) (_ BitVec 64) (_ BitVec 64) (_ BitVec 64)) Bool)

(assert (=> b!214504 (validate_offset_bits!1 ((_ sign_extend 32) (size!4641 (buf!5176 (_2!9833 lt!339012)))) ((_ sign_extend 32) (currentByte!9754 (_2!9833 lt!339006))) ((_ sign_extend 32) (currentBit!9749 (_2!9833 lt!339006))) lt!339019)))

(declare-fun lt!339008 () Unit!15266)

(declare-fun validateOffsetBitsContentIrrelevancyLemma!0 (BitStream!8390 array!10569 (_ BitVec 64)) Unit!15266)

(assert (=> b!214504 (= lt!339008 (validateOffsetBitsContentIrrelevancyLemma!0 (_2!9833 lt!339006) (buf!5176 (_2!9833 lt!339012)) lt!339019))))

(assert (=> b!214504 (= lt!339019 ((_ sign_extend 32) (bvsub (bvsub nBits!348 i!590) #b00000000000000000000000000000001)))))

(declare-fun lt!339009 () (_ BitVec 64))

(declare-fun lt!338996 () tuple2!18358)

(assert (=> b!214504 (= lt!339007 (bvor lt!339009 (ite (_2!9834 lt!338996) lt!339022 #b0000000000000000000000000000000000000000000000000000000000000000)))))

(assert (=> b!214504 (= lt!338997 (readNBitsLSBFirstsLoopPure!0 (_1!9832 lt!338998) nBits!348 i!590 lt!339009))))

(declare-fun lt!339017 () (_ BitVec 64))

(assert (=> b!214504 (validate_offset_bits!1 ((_ sign_extend 32) (size!4641 (buf!5176 (_2!9833 lt!339012)))) ((_ sign_extend 32) (currentByte!9754 thiss!1204)) ((_ sign_extend 32) (currentBit!9749 thiss!1204)) lt!339017)))

(declare-fun lt!339013 () Unit!15266)

(assert (=> b!214504 (= lt!339013 (validateOffsetBitsContentIrrelevancyLemma!0 thiss!1204 (buf!5176 (_2!9833 lt!339012)) lt!339017))))

(declare-fun onesLSBLong!0 ((_ BitVec 32)) (_ BitVec 64))

(assert (=> b!214504 (= lt!339009 (bvand v!189 (onesLSBLong!0 i!590)))))

(assert (=> b!214504 (= (_2!9834 lt!338996) lt!338995)))

(declare-fun readBitPure!0 (BitStream!8390) tuple2!18358)

(assert (=> b!214504 (= lt!338996 (readBitPure!0 (_1!9832 lt!338998)))))

(declare-fun reader!0 (BitStream!8390 BitStream!8390) tuple2!18354)

(assert (=> b!214504 (= lt!339002 (reader!0 (_2!9833 lt!339006) (_2!9833 lt!339012)))))

(assert (=> b!214504 (= lt!338998 (reader!0 thiss!1204 (_2!9833 lt!339012)))))

(assert (=> b!214504 e!146006))

(declare-fun res!180339 () Bool)

(assert (=> b!214504 (=> (not res!180339) (not e!146006))))

(assert (=> b!214504 (= res!180339 (= (bitIndex!0 (size!4641 (buf!5176 (_1!9834 lt!339020))) (currentByte!9754 (_1!9834 lt!339020)) (currentBit!9749 (_1!9834 lt!339020))) (bitIndex!0 (size!4641 (buf!5176 (_1!9834 lt!339004))) (currentByte!9754 (_1!9834 lt!339004)) (currentBit!9749 (_1!9834 lt!339004)))))))

(declare-fun lt!339021 () Unit!15266)

(declare-fun lt!339018 () BitStream!8390)

(declare-fun readBitPrefixLemma!0 (BitStream!8390 BitStream!8390) Unit!15266)

(assert (=> b!214504 (= lt!339021 (readBitPrefixLemma!0 lt!339018 (_2!9833 lt!339012)))))

(assert (=> b!214504 (= lt!339004 (readBitPure!0 (BitStream!8391 (buf!5176 (_2!9833 lt!339012)) (currentByte!9754 thiss!1204) (currentBit!9749 thiss!1204))))))

(assert (=> b!214504 (= lt!339020 (readBitPure!0 lt!339018))))

(assert (=> b!214504 e!146015))

(declare-fun res!180342 () Bool)

(assert (=> b!214504 (=> (not res!180342) (not e!146015))))

(assert (=> b!214504 (= res!180342 (invariant!0 (currentBit!9749 thiss!1204) (currentByte!9754 thiss!1204) (size!4641 (buf!5176 (_2!9833 lt!339006)))))))

(assert (=> b!214504 (= lt!339018 (BitStream!8391 (buf!5176 (_2!9833 lt!339006)) (currentByte!9754 thiss!1204) (currentBit!9749 thiss!1204)))))

(declare-fun b!214505 () Bool)

(declare-fun res!180332 () Bool)

(declare-fun e!146013 () Bool)

(assert (=> b!214505 (=> (not res!180332) (not e!146013))))

(assert (=> b!214505 (= res!180332 (isPrefixOf!0 thiss!1204 (_2!9833 lt!339006)))))

(declare-fun b!214506 () Bool)

(declare-fun res!180329 () Bool)

(assert (=> b!214506 (=> (not res!180329) (not e!146010))))

(assert (=> b!214506 (= res!180329 (invariant!0 (currentBit!9749 thiss!1204) (currentByte!9754 thiss!1204) (size!4641 (buf!5176 thiss!1204))))))

(declare-fun b!214507 () Bool)

(declare-fun res!180341 () Bool)

(declare-fun e!146017 () Bool)

(assert (=> b!214507 (=> res!180341 e!146017)))

(assert (=> b!214507 (= res!180341 (not (= (bitIndex!0 (size!4641 (buf!5176 (_1!9835 lt!338997))) (currentByte!9754 (_1!9835 lt!338997)) (currentBit!9749 (_1!9835 lt!338997))) (bitIndex!0 (size!4641 (buf!5176 (_2!9832 lt!338998))) (currentByte!9754 (_2!9832 lt!338998)) (currentBit!9749 (_2!9832 lt!338998))))))))

(declare-fun b!214508 () Bool)

(assert (=> b!214508 (= e!146011 e!146017)))

(declare-fun res!180346 () Bool)

(assert (=> b!214508 (=> res!180346 e!146017)))

(assert (=> b!214508 (= res!180346 (not (= (_1!9832 lt!339002) lt!339014)))))

(assert (=> b!214508 e!146014))

(declare-fun res!180340 () Bool)

(assert (=> b!214508 (=> (not res!180340) (not e!146014))))

(declare-fun lt!339015 () tuple2!18360)

(assert (=> b!214508 (= res!180340 (and (= (_2!9835 lt!338997) (_2!9835 lt!339015)) (= (_1!9835 lt!338997) (_1!9835 lt!339015))))))

(declare-fun lt!339016 () Unit!15266)

(declare-fun lemmaReadNBitsLSBFirstsLoopIsCorrect!0 (BitStream!8390 (_ BitVec 32) (_ BitVec 32) (_ BitVec 64)) Unit!15266)

(assert (=> b!214508 (= lt!339016 (lemmaReadNBitsLSBFirstsLoopIsCorrect!0 (_1!9832 lt!338998) nBits!348 i!590 lt!339009))))

(assert (=> b!214508 (= lt!339015 (readNBitsLSBFirstsLoopPure!0 lt!339014 nBits!348 (bvadd #b00000000000000000000000000000001 i!590) lt!339007))))

(assert (=> b!214508 (= lt!339014 (withMovedBitIndex!0 (_1!9832 lt!338998) #b0000000000000000000000000000000000000000000000000000000000000001))))

(declare-fun b!214509 () Bool)

(assert (=> b!214509 (= e!146017 true)))

(assert (=> b!214509 (= (size!4641 (buf!5176 thiss!1204)) (size!4641 (buf!5176 (_2!9833 lt!339012))))))

(declare-fun b!214510 () Bool)

(assert (=> b!214510 (= e!146012 e!146013)))

(declare-fun res!180336 () Bool)

(assert (=> b!214510 (=> (not res!180336) (not e!146013))))

(declare-fun lt!339011 () (_ BitVec 64))

(declare-fun lt!339000 () (_ BitVec 64))

(assert (=> b!214510 (= res!180336 (= lt!339011 (bvadd #b0000000000000000000000000000000000000000000000000000000000000001 lt!339000)))))

(assert (=> b!214510 (= lt!339011 (bitIndex!0 (size!4641 (buf!5176 (_2!9833 lt!339006))) (currentByte!9754 (_2!9833 lt!339006)) (currentBit!9749 (_2!9833 lt!339006))))))

(assert (=> b!214510 (= lt!339000 (bitIndex!0 (size!4641 (buf!5176 thiss!1204)) (currentByte!9754 thiss!1204) (currentBit!9749 thiss!1204)))))

(declare-fun b!214511 () Bool)

(declare-fun e!146016 () Bool)

(declare-fun lt!338999 () tuple2!18358)

(assert (=> b!214511 (= e!146016 (= (bitIndex!0 (size!4641 (buf!5176 (_1!9834 lt!338999))) (currentByte!9754 (_1!9834 lt!338999)) (currentBit!9749 (_1!9834 lt!338999))) lt!339011))))

(declare-fun b!214512 () Bool)

(declare-fun res!180344 () Bool)

(assert (=> b!214512 (=> res!180344 e!146008)))

(assert (=> b!214512 (= res!180344 (not (invariant!0 (currentBit!9749 (_2!9833 lt!339012)) (currentByte!9754 (_2!9833 lt!339012)) (size!4641 (buf!5176 (_2!9833 lt!339012))))))))

(declare-fun b!214513 () Bool)

(declare-fun res!180345 () Bool)

(assert (=> b!214513 (=> res!180345 e!146008)))

(assert (=> b!214513 (= res!180345 (or (not (= (size!4641 (buf!5176 (_2!9833 lt!339012))) (size!4641 (buf!5176 thiss!1204)))) (not (= lt!339001 (bvsub (bvadd lt!339003 ((_ sign_extend 32) nBits!348)) ((_ sign_extend 32) i!590))))))))

(declare-fun b!214514 () Bool)

(declare-fun e!146007 () Bool)

(assert (=> b!214514 (= e!146007 e!146010)))

(declare-fun res!180328 () Bool)

(assert (=> b!214514 (=> (not res!180328) (not e!146010))))

(assert (=> b!214514 (= res!180328 (validate_offset_bits!1 ((_ sign_extend 32) (size!4641 (buf!5176 thiss!1204))) ((_ sign_extend 32) (currentByte!9754 thiss!1204)) ((_ sign_extend 32) (currentBit!9749 thiss!1204)) lt!339017))))

(assert (=> b!214514 (= lt!339017 ((_ sign_extend 32) (bvsub nBits!348 i!590)))))

(declare-fun b!214515 () Bool)

(assert (=> b!214515 (= e!146013 e!146016)))

(declare-fun res!180343 () Bool)

(assert (=> b!214515 (=> (not res!180343) (not e!146016))))

(assert (=> b!214515 (= res!180343 (and (= (_2!9834 lt!338999) lt!338995) (= (_1!9834 lt!338999) (_2!9833 lt!339006))))))

(declare-fun readerFrom!0 (BitStream!8390 (_ BitVec 32) (_ BitVec 32)) BitStream!8390)

(assert (=> b!214515 (= lt!338999 (readBitPure!0 (readerFrom!0 (_2!9833 lt!339006) (currentBit!9749 thiss!1204) (currentByte!9754 thiss!1204))))))

(declare-fun res!180337 () Bool)

(assert (=> start!44806 (=> (not res!180337) (not e!146007))))

(assert (=> start!44806 (= res!180337 (and (bvsge nBits!348 #b00000000000000000000000000000000) (bvsle nBits!348 #b00000000000000000000000001000000) (bvsle #b00000000000000000000000000000000 i!590) (bvsle i!590 nBits!348)))))

(assert (=> start!44806 e!146007))

(assert (=> start!44806 true))

(declare-fun inv!12 (BitStream!8390) Bool)

(assert (=> start!44806 (and (inv!12 thiss!1204) e!146018)))

(declare-fun b!214500 () Bool)

(declare-fun res!180326 () Bool)

(assert (=> b!214500 (=> res!180326 e!146008)))

(assert (=> b!214500 (= res!180326 (not (isPrefixOf!0 thiss!1204 (_2!9833 lt!339006))))))

(assert (= (and start!44806 res!180337) b!214514))

(assert (= (and b!214514 res!180328) b!214506))

(assert (= (and b!214506 res!180329) b!214498))

(assert (= (and b!214498 res!180330) b!214496))

(assert (= (and b!214496 res!180338) b!214510))

(assert (= (and b!214510 res!180336) b!214505))

(assert (= (and b!214505 res!180332) b!214515))

(assert (= (and b!214515 res!180343) b!214511))

(assert (= (and b!214496 (not res!180327)) b!214503))

(assert (= (and b!214503 (not res!180331)) b!214512))

(assert (= (and b!214512 (not res!180344)) b!214513))

(assert (= (and b!214513 (not res!180345)) b!214501))

(assert (= (and b!214501 (not res!180334)) b!214500))

(assert (= (and b!214500 (not res!180326)) b!214504))

(assert (= (and b!214504 res!180342) b!214495))

(assert (= (and b!214504 res!180339) b!214497))

(assert (= (and b!214504 (not res!180333)) b!214508))

(assert (= (and b!214508 res!180340) b!214502))

(assert (= (and b!214502 res!180335) b!214493))

(assert (= (and b!214493 res!180347) b!214499))

(assert (= (and b!214508 (not res!180346)) b!214507))

(assert (= (and b!214507 (not res!180341)) b!214509))

(assert (= start!44806 b!214494))

(declare-fun m!330557 () Bool)

(assert (=> b!214501 m!330557))

(declare-fun m!330559 () Bool)

(assert (=> b!214494 m!330559))

(declare-fun m!330561 () Bool)

(assert (=> b!214496 m!330561))

(declare-fun m!330563 () Bool)

(assert (=> b!214496 m!330563))

(declare-fun m!330565 () Bool)

(assert (=> b!214496 m!330565))

(declare-fun m!330567 () Bool)

(assert (=> b!214500 m!330567))

(declare-fun m!330569 () Bool)

(assert (=> b!214493 m!330569))

(declare-fun m!330571 () Bool)

(assert (=> b!214508 m!330571))

(declare-fun m!330573 () Bool)

(assert (=> b!214508 m!330573))

(declare-fun m!330575 () Bool)

(assert (=> b!214508 m!330575))

(declare-fun m!330577 () Bool)

(assert (=> b!214515 m!330577))

(assert (=> b!214515 m!330577))

(declare-fun m!330579 () Bool)

(assert (=> b!214515 m!330579))

(declare-fun m!330581 () Bool)

(assert (=> b!214511 m!330581))

(declare-fun m!330583 () Bool)

(assert (=> b!214504 m!330583))

(declare-fun m!330585 () Bool)

(assert (=> b!214504 m!330585))

(declare-fun m!330587 () Bool)

(assert (=> b!214504 m!330587))

(declare-fun m!330589 () Bool)

(assert (=> b!214504 m!330589))

(declare-fun m!330591 () Bool)

(assert (=> b!214504 m!330591))

(declare-fun m!330593 () Bool)

(assert (=> b!214504 m!330593))

(declare-fun m!330595 () Bool)

(assert (=> b!214504 m!330595))

(declare-fun m!330597 () Bool)

(assert (=> b!214504 m!330597))

(declare-fun m!330599 () Bool)

(assert (=> b!214504 m!330599))

(declare-fun m!330601 () Bool)

(assert (=> b!214504 m!330601))

(declare-fun m!330603 () Bool)

(assert (=> b!214504 m!330603))

(declare-fun m!330605 () Bool)

(assert (=> b!214504 m!330605))

(declare-fun m!330607 () Bool)

(assert (=> b!214504 m!330607))

(declare-fun m!330609 () Bool)

(assert (=> b!214504 m!330609))

(declare-fun m!330611 () Bool)

(assert (=> b!214504 m!330611))

(declare-fun m!330613 () Bool)

(assert (=> b!214504 m!330613))

(declare-fun m!330615 () Bool)

(assert (=> b!214495 m!330615))

(declare-fun m!330617 () Bool)

(assert (=> b!214507 m!330617))

(declare-fun m!330619 () Bool)

(assert (=> b!214507 m!330619))

(declare-fun m!330621 () Bool)

(assert (=> start!44806 m!330621))

(declare-fun m!330623 () Bool)

(assert (=> b!214506 m!330623))

(assert (=> b!214510 m!330561))

(assert (=> b!214510 m!330563))

(declare-fun m!330625 () Bool)

(assert (=> b!214503 m!330625))

(declare-fun m!330627 () Bool)

(assert (=> b!214503 m!330627))

(declare-fun m!330629 () Bool)

(assert (=> b!214503 m!330629))

(declare-fun m!330631 () Bool)

(assert (=> b!214503 m!330631))

(assert (=> b!214505 m!330567))

(declare-fun m!330633 () Bool)

(assert (=> b!214502 m!330633))

(declare-fun m!330635 () Bool)

(assert (=> b!214514 m!330635))

(declare-fun m!330637 () Bool)

(assert (=> b!214512 m!330637))

(push 1)

